/* Objective Function */
max: 10 Loans + 31 Deposit;

/* Constraints */
10 Loans + 31 Deposit - 100 Expense <= 0;
15 Loans + 25 Deposit - 100 Expense <= 0;
20 Loans + 30 Deposit - 100 Expense <= 0;
23 Loans + 23 Deposit - 100 Expense <= 0;
30 Loans + 20 Deposit - 100 Expense <= 0;
+ 100 Expense = 1;